c Grid problem: 5x5 grid
p min 25 80
n 1 1000
n 25 -1000
a 1 2 0 1000 7
a 2 1 0 1000 7
a 1 6 0 1000 2
a 6 1 0 1000 2
a 2 3 0 1000 2
a 3 2 0 1000 2
a 2 7 0 1000 6
a 7 2 0 1000 6
a 3 4 0 1000 2
a 4 3 0 1000 2
a 3 8 0 1000 3
a 8 3 0 1000 3
a 4 5 0 1000 8
a 5 4 0 1000 8
a 4 9 0 1000 6
a 9 4 0 1000 6
a 5 10 0 1000 2
a 10 5 0 1000 2
a 6 7 0 1000 8
a 7 6 0 1000 8
a 6 11 0 1000 3
a 11 6 0 1000 3
a 7 8 0 1000 3
a 8 7 0 1000 3
a 7 12 0 1000 6
a 12 7 0 1000 6
a 8 9 0 1000 4
a 9 8 0 1000 4
a 8 13 0 1000 4
a 13 8 0 1000 4
a 9 10 0 1000 3
a 10 9 0 1000 3
a 9 14 0 1000 6
a 14 9 0 1000 6
a 10 15 0 1000 1
a 15 10 0 1000 1
a 11 12 0 1000 9
a 12 11 0 1000 9
a 11 16 0 1000 6
a 16 11 0 1000 6
a 12 13 0 1000 4
a 13 12 0 1000 4
a 12 17 0 1000 2
a 17 12 0 1000 2
a 13 14 0 1000 1
a 14 13 0 1000 1
a 13 18 0 1000 8
a 18 13 0 1000 8
a 14 15 0 1000 9
a 15 14 0 1000 9
a 14 19 0 1000 6
a 19 14 0 1000 6
a 15 20 0 1000 1
a 20 15 0 1000 1
a 16 17 0 1000 8
a 17 16 0 1000 8
a 16 21 0 1000 2
a 21 16 0 1000 2
a 17 18 0 1000 10
a 18 17 0 1000 10
a 17 22 0 1000 7
a 22 17 0 1000 7
a 18 19 0 1000 6
a 19 18 0 1000 6
a 18 23 0 1000 2
a 23 18 0 1000 2
a 19 20 0 1000 1
a 20 19 0 1000 1
a 19 24 0 1000 4
a 24 19 0 1000 4
a 20 25 0 1000 6
a 25 20 0 1000 6
a 21 22 0 1000 9
a 22 21 0 1000 9
a 22 23 0 1000 1
a 23 22 0 1000 1
a 23 24 0 1000 6
a 24 23 0 1000 6
a 24 25 0 1000 9
a 25 24 0 1000 9
